objective value:                    0.994952902110005
h-1,7                                            0.05 	(obj:0)
h-1,12                                           0.05 	(obj:0)
h-1,13                                           0.05 	(obj:0)
h-1,14                                           0.05 	(obj:0)
h-1,34                                           0.05 	(obj:0)
h-1,35                                           0.05 	(obj:0)
h-1,36                                           0.05 	(obj:0)
h-1,37                                           0.05 	(obj:0)
h-1,38                                           0.05 	(obj:0)
h-1,39                                           0.05 	(obj:0)
h-1,40                                           0.05 	(obj:0)
h-1,41                                           0.05 	(obj:0)
h-1,42                                           0.05 	(obj:0)
h-1,43                                           0.05 	(obj:0)
h-1,44                                           0.05 	(obj:0)
h-1,45                                           0.05 	(obj:0)
h-1,46                                           0.05 	(obj:0)
h-1,47                                           0.05 	(obj:0)
h-1,48                                           0.05 	(obj:0)
h-1,49                                           0.05 	(obj:0)
h-1,50                                           0.05 	(obj:0)
h-1,51                                           0.05 	(obj:0)
h-1,62                                           0.05 	(obj:0)
h-1,63                                           0.05 	(obj:0)
h-1,64                                           0.05 	(obj:0)
h-1,65                                           0.05 	(obj:0)
h-1,66                                           0.05 	(obj:0)
h-1,67                                           0.05 	(obj:0)
h-1,68                                           0.05 	(obj:0)
h-1,69                                           0.05 	(obj:0)
h-1,70                                           0.05 	(obj:0)
h-1,72                                           0.05 	(obj:0)
h-1,73                                           0.05 	(obj:0)
h-1,74                                           0.05 	(obj:0)
h-1,75                                           0.05 	(obj:0)
h-1,76                                           0.05 	(obj:0)
h-1,77                                           0.05 	(obj:0)
h-1,78                                           0.05 	(obj:0)
h-1,79                                           0.05 	(obj:0)
h-1,80                                           0.05 	(obj:0)
h-1,81                                           0.05 	(obj:0)
h-1,87                                           0.05 	(obj:0)
h-1,91                                           0.05 	(obj:0)
h-1,92                                           0.05 	(obj:0)
h-1,93                                           0.05 	(obj:0)
h-1,94                                           0.05 	(obj:0)
h-1,95                                           0.05 	(obj:0)
h-1,96                                           0.05 	(obj:0)
h-1,97                                           0.05 	(obj:0)
h-1,98                                           0.05 	(obj:0)
h-1,99                                           0.05 	(obj:0)
h-1,100                                          0.05 	(obj:0)
h-1,101                                          0.05 	(obj:0)
h-1,102                                          0.05 	(obj:0)
h-1,103                                          0.05 	(obj:0)
h-1,104                                          0.05 	(obj:0)
h-1,105                                          0.05 	(obj:0)
h-1,109                                          0.05 	(obj:0)
h-1,110                                          0.05 	(obj:0)
h-1,120                                          0.05 	(obj:0)
h-1,121                                          0.05 	(obj:0)
h-1,122                                          0.05 	(obj:0)
h-1,123                                          0.05 	(obj:0)
h-1,126                                          0.05 	(obj:0)
h-1,127                                          0.05 	(obj:0)
h-1,128                             0.199019613862038 	(obj:0)
h-1,129                             0.946078431606293 	(obj:0)
h-1,130                             0.377450984716415 	(obj:0)
h-1,138                                          0.05 	(obj:0)
h-1,139                                          0.05 	(obj:0)
h-1,148                                          0.05 	(obj:0)
h-1,149                                          0.05 	(obj:0)
h-1,150                                          0.05 	(obj:0)
h-1,151                                          0.05 	(obj:0)
h-1,152                                          0.05 	(obj:0)
h-1,154                                          0.05 	(obj:0)
h-1,156                             0.391176480054855 	(obj:0)
h-1,157                                             1 	(obj:0)
h-1,158                             0.371568638086319 	(obj:0)
h-1,159                                          0.05 	(obj:0)
h-1,160                                          0.05 	(obj:0)
h-1,161                                          0.05 	(obj:0)
h-1,166                                          0.05 	(obj:0)
h-1,167                                          0.05 	(obj:0)
h-1,175                                          0.05 	(obj:0)
h-1,180                                          0.05 	(obj:0)
h-1,183                                          0.05 	(obj:0)
h-1,184                             0.479411792755127 	(obj:0)
h-1,185                             0.895098042488098 	(obj:0)
h-1,195                                          0.05 	(obj:0)
h-1,202                                          0.05 	(obj:0)
h-1,203                                          0.05 	(obj:0)
h-1,204                                          0.05 	(obj:0)
h-1,211                             0.126470592617989 	(obj:0)
h-1,212                              0.90686274766922 	(obj:0)
h-1,213                             0.538235318660736 	(obj:0)
h-1,239                             0.279411774873734 	(obj:0)
h-1,240                                             1 	(obj:0)
h-1,241                              0.19705882370472 	(obj:0)
h-1,257                                          0.05 	(obj:0)
h-1,262                                          0.05 	(obj:0)
h-1,263                                          0.05 	(obj:0)
h-1,265                                          0.05 	(obj:0)
h-1,266                                          0.05 	(obj:0)
h-1,267                             0.742156875133514 	(obj:0)
h-1,268                             0.824509811401367 	(obj:0)
h-1,271                                          0.05 	(obj:0)
h-1,275                                          0.05 	(obj:0)
h-1,285                                          0.05 	(obj:0)
h-1,286                                          0.05 	(obj:0)
h-1,291                                          0.05 	(obj:0)
h-1,292                                          0.05 	(obj:0)
h-1,294                             0.075490203499794 	(obj:0)
h-1,295                             0.946078431606293 	(obj:0)
h-1,296                             0.797058832645416 	(obj:0)
h-1,298                                          0.05 	(obj:0)
h-1,299                                          0.05 	(obj:0)
h-1,314                                          0.05 	(obj:0)
h-1,322                             0.322549027204514 	(obj:0)
h-1,323                             0.946078431606293 	(obj:0)
h-1,324                             0.714705896377563 	(obj:0)
h-1,327                                          0.05 	(obj:0)
h-1,329                                          0.05 	(obj:0)
h-1,331                                          0.05 	(obj:0)
h-1,332                                          0.05 	(obj:0)
h-1,350                             0.499019634723663 	(obj:0)
h-1,351                             0.946078431606293 	(obj:0)
h-1,352                             0.251960796117783 	(obj:0)
h-1,357                                          0.05 	(obj:0)
h-1,358                                          0.05 	(obj:0)
h-1,359                                          0.05 	(obj:0)
h-1,360                                          0.05 	(obj:0)
h-1,361                                          0.05 	(obj:0)
h-1,363                                          0.05 	(obj:0)
h-1,377                             0.173529413342476 	(obj:0)
h-1,378                             0.879411768913269 	(obj:0)
h-1,379                             0.753921580314636 	(obj:0)
h-1,385                                          0.05 	(obj:0)
h-1,386                                          0.05 	(obj:0)
h-1,387                                          0.05 	(obj:0)
h-1,388                                          0.05 	(obj:0)
h-1,389                                          0.05 	(obj:0)
h-1,390                                          0.05 	(obj:0)
h-1,391                                          0.05 	(obj:0)
h-1,398                                          0.05 	(obj:0)
h-1,399                                          0.05 	(obj:0)
h-1,402                                          0.05 	(obj:0)
h-1,403                                          0.05 	(obj:0)
h-1,405                             0.436274510622025 	(obj:0)
h-1,406                                          0.95 	(obj:0)
h-1,407                             0.597058844566345 	(obj:0)
h-1,412                                          0.05 	(obj:0)
h-1,414                                          0.05 	(obj:0)
h-1,415                                          0.05 	(obj:0)
h-1,416                                          0.05 	(obj:0)
h-1,417                                          0.05 	(obj:0)
h-1,418                                          0.05 	(obj:0)
h-1,419                                          0.05 	(obj:0)
h-1,424                                          0.05 	(obj:0)
h-1,425                                          0.05 	(obj:0)
h-1,426                                          0.05 	(obj:0)
h-1,427                                          0.05 	(obj:0)
h-1,428                                          0.05 	(obj:0)
h-1,429                                          0.05 	(obj:0)
h-1,430                                          0.05 	(obj:0)
h-1,433                             0.620588254928589 	(obj:0)
h-1,434                             0.946078431606293 	(obj:0)
h-1,435                             0.267647069692612 	(obj:0)
h-1,441                                          0.05 	(obj:0)
h-1,444                                          0.05 	(obj:0)
h-1,445                                          0.05 	(obj:0)
h-1,446                                          0.05 	(obj:0)
h-1,447                                          0.05 	(obj:0)
h-1,451                                          0.05 	(obj:0)
h-1,452                                          0.05 	(obj:0)
h-1,453                                          0.05 	(obj:0)
h-1,454                                          0.05 	(obj:0)
h-1,455                                          0.05 	(obj:0)
h-1,456                                          0.05 	(obj:0)
h-1,457                                          0.05 	(obj:0)
h-1,458                                          0.05 	(obj:0)
h-1,460                            0.0441176488995552 	(obj:0)
h-1,461                             0.859803926944733 	(obj:0)
h-1,462                             0.793137264251709 	(obj:0)
h-1,465                                          0.05 	(obj:0)
h-1,466                                          0.05 	(obj:0)
h-1,467                                          0.05 	(obj:0)
h-1,468                                          0.05 	(obj:0)
h-1,469                                          0.05 	(obj:0)
h-1,470                                          0.05 	(obj:0)
h-1,471                                          0.05 	(obj:0)
h-1,472                                          0.05 	(obj:0)
h-1,473                                          0.05 	(obj:0)
h-1,474                                          0.05 	(obj:0)
h-1,475                                          0.05 	(obj:0)
h-1,480                                          0.05 	(obj:0)
h-1,481                                          0.05 	(obj:0)
h-1,482                                          0.05 	(obj:0)
h-1,483                                          0.05 	(obj:0)
h-1,484                                          0.05 	(obj:0)
h-1,485                                          0.05 	(obj:0)
h-1,486                                          0.05 	(obj:0)
h-1,487                                          0.05 	(obj:0)
h-1,488                             0.520588237047195 	(obj:0)
h-1,489                             0.946078431606293 	(obj:0)
h-1,490                             0.573529434204102 	(obj:0)
h-1,491                                          0.05 	(obj:0)
h-1,492                                          0.05 	(obj:0)
h-1,493                                          0.05 	(obj:0)
h-1,494                                          0.05 	(obj:0)
h-1,495                                          0.05 	(obj:0)
h-1,496                                          0.05 	(obj:0)
h-1,497                                          0.05 	(obj:0)
h-1,498                                          0.05 	(obj:0)
h-1,499                                          0.05 	(obj:0)
h-1,500                                          0.05 	(obj:0)
h-1,501                                          0.05 	(obj:0)
h-1,502                                          0.05 	(obj:0)
h-1,503                                          0.05 	(obj:0)
h-1,504                                          0.05 	(obj:0)
h-1,508                                          0.05 	(obj:0)
h-1,509                                          0.05 	(obj:0)
h-1,510                                          0.05 	(obj:0)
h-1,511                                          0.05 	(obj:0)
h-1,512                                          0.05 	(obj:0)
h-1,513                                          0.05 	(obj:0)
h-1,514                                          0.05 	(obj:0)
h-1,515                                          0.05 	(obj:0)
h-1,516                             0.642156887054443 	(obj:0)
h-1,517                                             1 	(obj:0)
h-1,518                             0.606862771511078 	(obj:0)
h-1,519                                          0.05 	(obj:0)
h-1,520                                          0.05 	(obj:0)
h-1,521                                          0.05 	(obj:0)
h-1,522                                          0.05 	(obj:0)
h-1,523                                          0.05 	(obj:0)
h-1,524                                          0.05 	(obj:0)
h-1,526                                          0.05 	(obj:0)
h-1,527                                          0.05 	(obj:0)
h-1,528                                          0.05 	(obj:0)
h-1,529                                          0.05 	(obj:0)
h-1,531                                          0.05 	(obj:0)
h-1,536                                          0.05 	(obj:0)
h-1,537                                          0.05 	(obj:0)
h-1,539                                          0.05 	(obj:0)
h-1,540                                          0.05 	(obj:0)
h-1,541                                          0.05 	(obj:0)
h-1,542                                          0.05 	(obj:0)
h-1,543                                          0.05 	(obj:0)
h-1,544                             0.944117653369904 	(obj:0)
h-1,545                                             1 	(obj:0)
h-1,546                             0.308823543787003 	(obj:0)
h-1,547                                          0.05 	(obj:0)
h-1,548                                          0.05 	(obj:0)
h-1,549                                          0.05 	(obj:0)
h-1,550                                          0.05 	(obj:0)
h-1,551                                          0.05 	(obj:0)
h-1,552                                          0.05 	(obj:0)
h-1,553                                          0.05 	(obj:0)
h-1,554                                          0.05 	(obj:0)
h-1,555                                          0.05 	(obj:0)
h-1,556                                          0.05 	(obj:0)
h-1,557                                          0.05 	(obj:0)
h-1,558                                          0.05 	(obj:0)
h-1,561                                          0.05 	(obj:0)
h-1,564                                          0.05 	(obj:0)
h-1,565                                          0.05 	(obj:0)
h-1,566                                          0.05 	(obj:0)
h-1,567                                          0.05 	(obj:0)
h-1,568                                          0.05 	(obj:0)
h-1,569                                          0.05 	(obj:0)
h-1,570                                          0.05 	(obj:0)
h-1,571                             0.289215686917305 	(obj:0)
h-1,572                                             1 	(obj:0)
h-1,573                                             1 	(obj:0)
h-1,574                             0.308823543787003 	(obj:0)
h-1,575                                          0.05 	(obj:0)
h-1,576                                          0.05 	(obj:0)
h-1,578                                          0.05 	(obj:0)
h-1,579                                          0.05 	(obj:0)
h-1,580                                          0.05 	(obj:0)
h-1,581                                          0.05 	(obj:0)
h-1,582                                          0.05 	(obj:0)
h-1,583                                          0.05 	(obj:0)
h-1,584                                          0.05 	(obj:0)
h-1,585                                          0.05 	(obj:0)
h-1,592                                          0.05 	(obj:0)
h-1,593                                          0.05 	(obj:0)
h-1,594                                          0.05 	(obj:0)
h-1,595                                          0.05 	(obj:0)
h-1,597                                          0.05 	(obj:0)
h-1,598                                          0.05 	(obj:0)
h-1,599                             0.602941203117371 	(obj:0)
h-1,600                                             1 	(obj:0)
h-1,601                             0.853921580314636 	(obj:0)
h-1,602                            0.0617647061124444 	(obj:0)
h-1,603                                          0.05 	(obj:0)
h-1,604                                          0.05 	(obj:0)
h-1,605                                          0.05 	(obj:0)
h-1,606                                          0.05 	(obj:0)
h-1,607                                          0.05 	(obj:0)
h-1,608                                          0.05 	(obj:0)
h-1,609                                          0.05 	(obj:0)
h-1,610                                          0.05 	(obj:0)
h-1,611                                          0.05 	(obj:0)
h-1,612                                          0.05 	(obj:0)
h-1,613                                          0.05 	(obj:0)
h-1,614                                          0.05 	(obj:0)
h-1,618                                          0.05 	(obj:0)
h-1,620                                          0.05 	(obj:0)
h-1,621                                          0.05 	(obj:0)
h-1,622                                          0.05 	(obj:0)
h-1,623                                          0.05 	(obj:0)
h-1,624                                          0.05 	(obj:0)
h-1,625                                          0.05 	(obj:0)
h-1,626                            0.0892156876623631 	(obj:0)
h-1,627                             0.893137264251709 	(obj:0)
h-1,628                                             1 	(obj:0)
h-1,629                             0.524509805440903 	(obj:0)
h-1,630                                          0.05 	(obj:0)
h-1,631                                          0.05 	(obj:0)
h-1,634                                          0.05 	(obj:0)
h-1,635                                          0.05 	(obj:0)
h-1,636                                          0.05 	(obj:0)
h-1,637                                          0.05 	(obj:0)
h-1,638                                          0.05 	(obj:0)
h-1,639                                          0.05 	(obj:0)
h-1,640                                          0.05 	(obj:0)
h-1,641                                          0.05 	(obj:0)
h-1,646                                          0.05 	(obj:0)
h-1,652                                          0.05 	(obj:0)
h-1,653                                          0.05 	(obj:0)
h-1,655                             0.826470601558685 	(obj:0)
h-1,656                             0.740196096897125 	(obj:0)
h-1,663                                          0.05 	(obj:0)
h-1,664                                          0.05 	(obj:0)
h-1,665                                          0.05 	(obj:0)
h-1,666                                          0.05 	(obj:0)
h-1,667                                          0.05 	(obj:0)
h-1,668                                          0.05 	(obj:0)
h-1,669                                          0.05 	(obj:0)
h-1,674                                          0.05 	(obj:0)
h-1,684                                          0.05 	(obj:0)
h-1,685                                          0.05 	(obj:0)
h-1,686                                          0.05 	(obj:0)
h-1,687                                          0.05 	(obj:0)
h-1,691                                          0.05 	(obj:0)
h-1,692                                          0.05 	(obj:0)
h-1,693                                          0.05 	(obj:0)
h-1,694                                          0.05 	(obj:0)
h-1,695                                          0.05 	(obj:0)
h-1,696                                          0.05 	(obj:0)
h-1,697                                          0.05 	(obj:0)
h-1,698                                          0.05 	(obj:0)
h-1,720                                          0.05 	(obj:0)
h-1,723                                          0.05 	(obj:0)
h-1,724                                          0.05 	(obj:0)
h-1,725                                          0.05 	(obj:0)
h-1,726                                          0.05 	(obj:0)
h-1,732                                          0.05 	(obj:0)
h-1,733                                          0.05 	(obj:0)
h-1,734                                          0.05 	(obj:0)
h-1,739                                          0.05 	(obj:0)
h-1,747                                          0.05 	(obj:0)
h-1,748                                          0.05 	(obj:0)
h-1,751                                          0.05 	(obj:0)
h-1,752                                          0.05 	(obj:0)
h-1,765                                          0.05 	(obj:0)
h-1,771                                          0.05 	(obj:0)
h-1,772                                          0.05 	(obj:0)
h-1,777                                          0.05 	(obj:0)
h-1,778                                          0.05 	(obj:0)
z0,0                                 4.54364856429611 	(obj:0)
a0,0                                 4.54364856429611 	(obj:0)
z0,1                                 -1.4257886395945 	(obj:0)
z0,2                                0.261103786110948 	(obj:0)
a0,2                                0.261103786110948 	(obj:0)
z0,3                                 1.50410920015791 	(obj:0)
a0,3                                 1.50410920015791 	(obj:0)
z0,4                                 4.77686007136147 	(obj:0)
a0,4                                 4.77686007136147 	(obj:0)
z1,0                                -3.03885516103505 	(obj:0)
z1,1                                 4.32605024361989 	(obj:0)
a1,1                                 4.32605024361989 	(obj:-1)
z1,2                                 5.32100314572989 	(obj:0)
a1,2                                 5.32100314572989 	(obj:1)
z1,3                                  1.8491154250707 	(obj:0)
a1,3                                  1.8491154250707 	(obj:0)
z1,4                                -5.14153105257654 	(obj:0)
z1,5                                 -3.0713396981056 	(obj:0)
z1,6                               -0.258548625644246 	(obj:0)
z1,7                                -6.10767911263003 	(obj:0)
z1,8                                 1.76159006406522 	(obj:0)
a1,8                                 1.76159006406522 	(obj:0)
z1,9                                -2.42460887517392 	(obj:0)
